;; Original file: adr_109.smt2
(set-logic HORN)
(declare-fun |f$unknown:2| (Int Int) Bool)
(declare-fun |f$unknown:4| (Int Int) Bool)
(declare-fun |incr$unknown:6| (Int Int) Bool)


(assert (forall ((|$knormal:11| Int)
         (|$knormal:1| Int)
         (|$alpha-2:x| Int)
         (|$V-reftype:3| Int)
         (|$alpha-1:g| Int))
  (let ((a!1 (and (= |$knormal:11| (- 4))
                  (= (not (= 0 |$knormal:1|)) (< |$alpha-2:x| (- 3)))
                  (not (= 0 |$knormal:1|))
                  true
                  (|f$unknown:2| |$V-reftype:3| |$alpha-1:g|)
                  true)))
    (=> a!1 (|f$unknown:2| |$V-reftype:3| |$alpha-1:g|)))))
(assert (forall ((|$knormal:6| Int)
         (|$alpha-2:x| Int)
         (|$knormal:2| Int)
         (|$knormal:1| Int)
         (|$V-reftype:3| Int)
         (|$alpha-1:g| Int))
  (let ((a!1 (and (= |$knormal:6| (- |$alpha-2:x| 2))
                  (= (not (= 0 |$knormal:2|)) (<= |$alpha-2:x| 1))
                  (= (not (= 0 |$knormal:1|)) (< |$alpha-2:x| (- 3)))
                  (not (not (= 0 |$knormal:2|)))
                  (not (not (= 0 |$knormal:1|)))
                  true
                  (|f$unknown:2| |$V-reftype:3| |$alpha-1:g|)
                  true)))
    (=> a!1 (|f$unknown:2| |$V-reftype:3| |$alpha-1:g|)))))
(assert (forall ((|$knormal:6| Int)
         (|$alpha-2:x| Int)
         (|$knormal:2| Int)
         (|$knormal:1| Int)
         (|$V-reftype:7| Int)
         (|$knormal:3| Int))
  (let ((a!1 (and (= |$knormal:6| (- |$alpha-2:x| 2))
                  (= (not (= 0 |$knormal:2|)) (<= |$alpha-2:x| 1))
                  (= (not (= 0 |$knormal:1|)) (< |$alpha-2:x| (- 3)))
                  (not (not (= 0 |$knormal:2|)))
                  (not (not (= 0 |$knormal:1|)))
                  (|f$unknown:4| |$V-reftype:7| |$knormal:3|)
                  true
                  true)))
    (=> a!1 (|f$unknown:2| |$V-reftype:7| |$knormal:3|)))))
(assert (forall ((|$knormal:15| Int) (|$V-reftype:10| Int) (incr Int))
  (=> (and (= |$knormal:15| 3)
           (|incr$unknown:6| |$V-reftype:10| incr)
           true)
      (|f$unknown:2| |$V-reftype:10| incr))))
(assert (forall ((|$knormal:2| Int)
         (|$alpha-2:x| Int)
         (|$knormal:1| Int)
         (|$V-reftype:18| Int)
         (|$knormal:9| Int))
  (let ((a!1 (and (= (not (= 0 |$knormal:2|)) (<= |$alpha-2:x| 1))
                  (= (not (= 0 |$knormal:1|)) (< |$alpha-2:x| (- 3)))
                  (= |$V-reftype:18| |$knormal:9|)
                  (not (not (= 0 |$knormal:1|)))
                  (not (= 0 |$knormal:2|))
                  true
                  (|f$unknown:2| |$knormal:9| |$alpha-2:x|))))
    (=> a!1 (|f$unknown:4| |$V-reftype:18| |$alpha-2:x|)))))
(assert (forall ((|$knormal:11| Int)
         (|$knormal:1| Int)
         (|$alpha-2:x| Int)
         (|$V-reftype:16| Int)
         (|$knormal:13| Int))
  (let ((a!1 (and (= |$knormal:11| (- 4))
                  (= (not (= 0 |$knormal:1|)) (< |$alpha-2:x| (- 3)))
                  (= |$V-reftype:16| |$knormal:13|)
                  (not (= 0 |$knormal:1|))
                  (|f$unknown:4| |$knormal:13| |$knormal:11|)
                  true)))
    (=> a!1 (|f$unknown:4| |$V-reftype:16| |$alpha-2:x|)))))
(assert (forall ((|$knormal:6| Int)
         (|$alpha-2:x| Int)
         (|$knormal:2| Int)
         (|$knormal:1| Int)
         (|$V-reftype:20| Int)
         (|$knormal:8| Int))
  (let ((a!1 (and (= |$knormal:6| (- |$alpha-2:x| 2))
                  (= (not (= 0 |$knormal:2|)) (<= |$alpha-2:x| 1))
                  (= (not (= 0 |$knormal:1|)) (< |$alpha-2:x| (- 3)))
                  (= |$V-reftype:20| |$knormal:8|)
                  (not (not (= 0 |$knormal:2|)))
                  (not (not (= 0 |$knormal:1|)))
                  (|f$unknown:4| |$knormal:8| |$knormal:6|)
                  true)))
    (=> a!1 (|f$unknown:4| |$V-reftype:20| |$alpha-2:x|)))))
(assert (forall ((|$knormal:19| Int)
         (|$knormal:17| Int)
         (|$knormal:15| Int))
  (let ((a!1 (and (= (not (= 0 |$knormal:19|)) (>= |$knormal:17| (- 3)))
                  (= |$knormal:15| 3)
                  (not (not (= 0 |$knormal:19|)))
                  (|f$unknown:4| |$knormal:17| |$knormal:15|))))
    (=> a!1 false))))
(assert (forall ((|$V-reftype:21| Int) (|$alpha-3:x| Int))
  (=> (and (= |$V-reftype:21| (+ |$alpha-3:x| 1)) true)
      (|incr$unknown:6| |$V-reftype:21| |$alpha-3:x|))))
(check-sat)
